NAME : mtspf.pid12373.gtsp.348966247.tour
COMMENT : Length = 348966247
COMMENT : Found by LKH [Keld Helsgaun] Wed Jan  8 19:32:49 2025
TYPE : TOUR
DIMENSION : 185
TOUR_SECTION
1
85
82
83
84
5
76
77
74
75
116
117
114
115
91
92
93
90
46
47
48
49
3
4
144
145
142
143
8
9
102
103
104
105
30
31
32
33
167
168
169
166
40
41
38
39
119
120
121
118
24
43
44
45
42
124
125
122
123
72
73
70
71
185
182
183
184
14
56
57
54
55
16
17
18
19
53
50
51
52
2
101
98
99
100
134
135
136
137
12
176
177
174
175
141
138
139
140
81
78
79
80
165
162
163
164
10
35
36
37
34
64
65
62
63
15
179
180
181
178
7
97
94
95
96
110
111
112
113
21
22
28
29
26
27
88
89
86
87
159
160
161
158
23
156
157
154
155
108
109
106
107
20
149
146
147
148
13
126
127
128
129
131
132
133
130
171
172
173
170
11
153
150
151
152
6
58
59
60
61
25
67
68
69
66
-1
EOF
